Traveling Salesman Problem/TSP_generados/Aleatorio1621103226_5.tsp
NAME: Aleatorio1621103226_5.tsp
COMMENT: Randomly generated scenario
TYPE: TSP
DIMENSION: 5
EDGE_WEIGHT_TYPE: ATT
NODE_COORD_SECTION
1 37.89 26.76
2 11.47 18.59
3 48.37 37.81
4 30.05 2.34
5 16.74 34.66
